proyfinal/src/viki/013/andrea/andrea-localstore/experimentInOfficeAgust.take6/worker_3/e9440e12-6a15-4119-80bc-bf0cbfb7405e.als.cnf.out
Reading from standard input... Use '--help' for help.
============================[ Problem Statistics ]=============================
|                                                                             |
|  Number of variables:         87638                                         |
|  Number of clauses:          161767                                         |
|  Parse time:                   0.04 s                                       |
|                                                                             |
============================[ Search Statistics ]==============================
| Conflicts |          ORIGINAL         |          LEARNT          | Progress |
|           |    Vars  Clauses Literals |    Limit  Clauses Lit/Cl |          |
===============================================================================
|       100 |   62817   106697   266640 |    39122      100     17 | 28.322 % |
|       250 |   52427    76565   192562 |    43034      219     18 | 40.178 % |
|       475 |   51731    74419   186698 |    47337      401     38 | 40.972 % |
|       812 |   51719    74319   186488 |    52071      729     47 | 40.986 % |
|      1318 |   51719    74319   186488 |    57278     1235     61 | 40.986 % |
|      2077 |   51719    74319   186488 |    63006     1994     57 | 40.986 % |
|      3216 |   51714    74259   186354 |    69307     3103     53 | 40.991 % |
|      4924 |   51672    74066   185907 |    76238     4804     54 | 41.039 % |
|      7486 |   51391    72836   183034 |    83861     6259     60 | 41.360 % |
|     11330 |   51136    71753   180480 |    92248     9517     61 | 41.651 % |
===============================================================================
restarts              : 61
conflicts             : 14193          (8932 /sec)
decisions             : 45621          (0.00 % random) (28712 /sec)
propagations          : 17436879       (10974010 /sec)
conflict literals     : 825661         (45.08 % deleted)
Memory used           : 30.57 MB
CPU time              : 1.58893 s

UNSATISFIABLE
